
(set-logic ALL) 

(declare-datatype MyList ((Nil) (Cons (head Real) (tail MyList)) )) 
(declare-fun l0 () MyList) 
(declare-fun l1 () MyList) 
(declare-fun l2 () MyList) 
(declare-fun l3 () MyList) 
(declare-fun i0 () Real) 
(declare-fun i1 () Real) 
(assert (and (= l2 Nil) (= l2 Nil) (= l3 l1) (is-Nil Nil)) )
(assert (= l0 l0) )
(assert (and (= l0 Nil) (is-Cons Nil) (is-Cons Nil)) )
(assert (is-Nil l2) )
(assert (or (= l1 Nil) (= l1 Nil)) )
(assert (or (= l3 Nil) (= l2 Nil) (is-Nil l1) (= l2 l3)) )
(assert (is-Nil Nil) )
(assert (is-Nil Nil) )
(check-sat)
